50, 10537
796, 362
455, 481
614, 417
500, 447
23, 410
144, 658
233, 259
407, 635
370, 11
540, 303
660, 336
401, 142
320, 744
512, 311
953, 790
783, 957
656, 254
817, 894
228, 808
101, 668
94, 28
122, 457
10, 627
626, 297
919, 225
114, 310
687, 259
941, 788
766, 348
154, 424
639, 644
256, 949
179, 294
12, 45
526, 974
919, 833
105, 791
148, 524
389, 235
39, 155
465, 305
731, 461
461, 66
40, 700
31, 728
199, 14
668, 843
925, 492
503, 919
104, 476
